Geographic Exponential Decay
80 66 253 92 264 220 244 9 233 133 123 192 223 47 20 95 179 212 310 248 37 281 74 311 226 12 184 243 144 200 227 27 13 286 224 154 8 33 221 85 70 53 64 62 119 171 183 280 163 201 39 229 208 315 317 31 153 265 69 115 61 141 15 180 175 270 86 231 305 16 316 172 252 24 235 207 94 111 34 132 68
p edge 320 320
e 0 72 11.0
e 1 215 1.0
e 1 0 2.0
e 2 281 71.0
e 2 110 19.0
e 2 1 38.0
e 3 120 6.0
e 3 2 9.0
e 4 170 5.0
e 4 3 1.0
e 5 212 47.0
e 5 4 2.0
e 6 165 7.0
e 6 5 12.0
e 7 263 2.0
e 7 6 1.0
e 8 266 97.0
e 8 13 12.0
e 8 81 28.0
e 8 7 6.0
e 9 286 57.0
e 9 142 84.0
e 9 10 86.0
e 9 8 42.0
e 11 238 5.0
e 11 9 92.0
e 12 74 16.0
e 12 139 2.0
e 12 259 86.0
e 12 11 63.0
e 13 43 80.0
e 13 211 64.0
e 14 133 2.0
e 14 12 75.0
e 15 300 78.0
e 15 36 64.0
e 15 156 52.0
e 15 14 39.0
e 16 199 2.0
e 16 87 28.0
e 16 33 18.0
e 16 15 12.0
e 17 155 1.0
e 17 16 99.0
e 18 268 8.0
e 18 17 12.0
e 19 207 20.0
e 20 205 72.0
e 20 279 8.0
e 20 314 46.0
e 20 18 85.0
e 21 121 2.0
e 21 20 31.0
e 22 181 8.0
e 22 21 1.0
e 23 127 3.0
e 23 22 2.0
e 24 260 84.0
e 24 25 47.0
e 24 26 30.0
e 24 23 7.0
e 27 190 25.0
e 27 68 42.0
e 27 240 45.0
e 27 24 20.0
e 28 52 17.0
e 28 27 76.0
e 29 112 3.0
e 29 28 1.0
e 30 296 10.0
e 30 29 7.0
e 31 219 63.0
e 31 292 37.0
e 31 35 55.0
e 31 30 55.0
e 32 107 18.0
e 32 31 60.0
e 33 163 74.0
e 33 57 37.0
e 34 37 50.0
e 34 122 49.0
e 34 38 19.0
e 34 32 98.0
e 37 44 95.0
e 37 40 6.0
e 39 269 3.0
e 39 302 7.0
e 39 169 84.0
e 39 34 78.0
e 41 79 1.0
e 41 39 71.0
e 42 216 3.0
e 42 41 11.0
e 45 189 3.0
e 45 42 1.0
e 46 143 3.0
e 46 45 1.0
e 47 243 3.0
e 47 158 24.0
e 47 315 92.0
e 47 46 30.0
e 48 233 97.0
e 49 217 12.0
e 49 47 34.0
e 50 191 2.0
e 50 49 7.0
e 51 276 1.0
e 51 50 2.0
e 53 73 92.0
e 53 125 13.0
e 53 290 30.0
e 53 51 88.0
e 54 128 3.0
e 54 53 30.0
e 55 99 4.0
e 55 54 1.0
e 56 297 3.0
e 56 55 1.0
e 58 301 4.0
e 58 56 5.0
e 59 100 1.0
e 59 58 5.0
e 60 264 29.0
e 60 59 1.0
e 61 80 75.0
e 61 62 21.0
e 61 63 75.0
e 62 160 49.0
e 62 231 38.0
e 64 232 10.0
e 64 65 12.0
e 64 185 89.0
e 64 60 27.0
e 66 133 27.0
e 66 126 94.0
e 66 303 55.0
e 67 192 48.0
e 68 123 31.0
e 68 192 19.0
e 69 85 18.0
e 69 138 97.0
e 69 124 2.0
e 69 64 65.0
e 70 304 51.0
e 70 71 66.0
e 70 151 91.0
e 70 69 98.0
e 74 75 87.0
e 74 270 38.0
e 76 218 1.0
e 76 70 7.0
e 77 229 82.0
e 78 106 1.0
e 78 76 1.0
e 82 154 65.0
e 83 84 1.0
e 83 78 2.0
e 85 222 70.0
e 85 298 46.0
e 86 213 43.0
e 86 148 43.0
e 86 88 49.0
e 86 83 31.0
e 89 90 1.0
e 89 86 29.0
e 91 92 64.0
e 91 89 5.0
e 92 140 92.0
e 92 117 92.0
e 93 118 24.0
e 93 91 3.0
e 94 239 56.0
e 94 95 21.0
e 94 149 3.0
e 95 288 40.0
e 95 235 34.0
e 96 289 23.0
e 96 93 1.0
e 97 98 1.0
e 97 96 3.0
e 101 317 89.0
e 102 192 37.0
e 103 252 81.0
e 103 97 1.0
e 104 172 37.0
e 105 278 28.0
e 105 108 42.0
e 105 103 3.0
e 109 294 5.0
e 109 105 10.0
e 111 237 74.0
e 111 113 61.0
e 111 234 90.0
e 111 109 96.0
e 114 242 8.0
e 114 111 44.0
e 115 188 95.0
e 115 184 19.0
e 115 230 96.0
e 116 119 58.0
e 119 291 33.0
e 119 131 94.0
e 123 261 22.0
e 123 129 1.0
e 130 132 64.0
e 132 133 74.0
e 132 134 76.0
e 135 136 21.0
e 135 114 1.0
e 137 141 18.0
e 137 135 4.0
e 141 144 73.0
e 141 145 15.0
e 144 175 6.0
e 144 274 88.0
e 146 147 2.0
e 146 137 1.0
e 150 262 13.0
e 150 146 6.0
e 152 153 46.0
e 153 154 100.0
e 153 233 24.0
e 154 295 84.0
e 157 173 4.0
e 157 150 8.0
e 159 182 3.0
e 159 157 1.0
e 161 162 2.0
e 161 159 1.0
e 163 164 35.0
e 163 166 32.0
e 167 168 3.0
e 167 161 3.0
e 171 235 100.0
e 171 249 96.0
e 171 172 9.0
e 172 310 71.0
e 174 198 1.0
e 174 167 5.0
e 175 176 22.0
e 175 177 30.0
e 178 179 32.0
e 179 307 99.0
e 179 180 38.0
e 180 229 3.0
e 180 183 74.0
e 183 184 18.0
e 183 195 89.0
e 184 256 64.0
e 186 204 1.0
e 186 174 1.0
e 187 193 4.0
e 187 186 1.0
e 194 196 2.0
e 194 187 1.0
e 197 200 24.0
e 200 201 97.0
e 200 221 3.0
e 201 202 100.0
e 201 277 77.0
e 203 206 1.0
e 203 194 1.0
e 207 280 42.0
e 207 208 95.0
e 208 209 37.0
e 208 210 51.0
e 212 214 14.0
e 212 220 25.0
e 220 257 21.0
e 220 221 17.0
e 221 241 30.0
e 223 224 7.0
e 223 244 36.0
e 223 225 29.0
e 224 226 33.0
e 224 227 32.0
e 226 227 96.0
e 226 228 13.0
e 227 229 13.0
e 231 233 47.0
e 231 235 3.0
e 236 243 60.0
e 243 244 73.0
e 244 245 69.0
e 246 280 76.0
e 247 248 15.0
e 248 250 13.0
e 248 264 89.0
e 251 252 82.0
e 252 253 75.0
e 253 254 84.0
e 253 255 87.0
e 258 264 67.0
e 265 267 86.0
e 265 270 75.0
e 265 271 53.0
e 270 272 97.0
e 273 275 8.0
e 273 203 2.0
e 280 281 72.0
e 281 282 40.0
e 283 284 2.0
e 283 273 1.0
e 285 286 70.0
e 286 287 91.0
e 289 291 41.0
e 293 299 7.0
e 293 283 2.0
e 305 306 97.0
e 305 308 21.0
e 305 309 85.0
e 305 293 14.0
e 310 311 4.0
e 310 312 60.0
e 311 313 32.0
e 311 315 74.0
e 315 316 15.0
e 316 317 36.0
e 316 318 30.0
e 317 319 23.0
